c
c
c
c
c
11 66
0 0 -1
0 1 23
0 2 27
0 3 9
0 4 23
0 5 22
0 6 21
0 7 21
0 8 29
0 9 22
0 10 22
1 1 -1
1 2 8
1 3 5
1 4 28
1 5 16
1 6 19
1 7 22
1 8 19
1 9 28
1 10 22
2 2 -1
2 3 4
2 4 30
2 5 16
2 6 1
2 7 21
2 8 24
2 9 23
2 10 15
3 3 -1
3 4 18
3 5 2
3 6 1
3 7 21
3 8 28
3 9 29
3 10 17
4 4 -1
4 5 18
4 6 19
4 7 4
4 8 29
4 9 9
4 10 26
5 5 -1
5 6 19
5 7 1
5 8 12
5 9 27
5 10 28
6 6 -1
6 7 20
6 8 8
6 9 29
6 10 4
7 7 -1
7 8 1
7 9 15
7 10 6
8 8 -1
8 9 23
8 10 11
9 9 -1
9 10 23
10 10 -1
